c File: data_files/evolved_graphs/g3634.col
c
c Auto generated graph
c
p edge 100 1796
e 1 3
e 1 10
e 1 16
e 1 17
e 1 19
e 1 20
e 1 21
e 1 22
e 1 24
e 1 25
e 1 26
e 1 27
e 1 28
e 1 31
e 1 32
e 1 33
e 1 39
e 1 40
e 1 41
e 1 42
e 1 43
e 1 44
e 1 45
e 1 51
e 1 52
e 1 53
e 1 54
e 1 56
e 1 59
e 1 60
e 1 66
e 1 69
e 1 70
e 1 71
e 1 75
e 1 76
e 1 88
e 1 92
e 2 6
e 2 7
e 2 8
e 2 9
e 2 10
e 2 11
e 2 13
e 2 14
e 2 18
e 2 19
e 2 20
e 2 21
e 2 22
e 2 23
e 2 24
e 2 25
e 2 28
e 2 29
e 2 30
e 2 31
e 2 36
e 2 38
e 2 39
e 2 40
e 2 41
e 2 44
e 2 46
e 2 47
e 2 50
e 2 51
e 2 53
e 2 54
e 2 55
e 2 56
e 2 57
e 2 58
e 2 59
e 2 60
e 2 61
e 2 62
e 2 65
e 2 67
e 2 68
e 2 70
e 2 72
e 2 77
e 2 79
e 2 85
e 2 87
e 2 88
e 2 91
e 2 92
e 2 94
e 3 5
e 3 7
e 3 15
e 3 16
e 3 17
e 3 18
e 3 19
e 3 20
e 3 22
e 3 24
e 3 26
e 3 31
e 3 32
e 3 33
e 3 34
e 3 35
e 3 39
e 3 41
e 3 42
e 3 44
e 3 45
e 3 47
e 3 48
e 3 50
e 3 52
e 3 53
e 3 54
e 3 55
e 3 58
e 3 59
e 3 61
e 3 63
e 3 64
e 3 68
e 3 69
e 3 71
e 3 72
e 3 75
e 3 76
e 3 79
e 3 80
e 3 83
e 3 84
e 3 86
e 3 93
e 3 94
e 4 7
e 4 9
e 4 10
e 4 13
e 4 14
e 4 16
e 4 17
e 4 19
e 4 20
e 4 21
e 4 22
e 4 24
e 4 25
e 4 26
e 4 27
e 4 29
e 4 32
e 4 33
e 4 38
e 4 39
e 4 40
e 4 41
e 4 42
e 4 46
e 4 47
e 4 48
e 4 49
e 4 50
e 4 53
e 4 54
e 4 57
e 4 58
e 4 59
e 4 60
e 4 62
e 4 64
e 4 65
e 4 66
e 4 67
e 4 68
e 4 73
e 4 74
e 4 76
e 5 8
e 5 9
e 5 15
e 5 17
e 5 18
e 5 20
e 5 21
e 5 22
e 5 23
e 5 24
e 5 25
e 5 27
e 5 28
e 5 32
e 5 33
e 5 38
e 5 39
e 5 40
e 5 43
e 5 47
e 5 51
e 5 53
e 5 55
e 5 57
e 5 58
e 5 59
e 5 60
e 5 61
e 5 63
e 5 65
e 5 67
e 5 69
e 5 71
e 5 72
e 5 74
e 5 76
e 5 79
e 5 83
e 5 93
e 6 7
e 6 8
e 6 13
e 6 14
e 6 15
e 6 18
e 6 19
e 6 20
e 6 22
e 6 24
e 6 25
e 6 28
e 6 29
e 6 30
e 6 31
e 6 35
e 6 39
e 6 40
e 6 42
e 6 45
e 6 48
e 6 49
e 6 50
e 6 52
e 6 54
e 6 56
e 6 57
e 6 60
e 6 65
e 6 66
e 6 67
e 6 68
e 6 70
e 6 71
e 6 72
e 6 75
e 6 82
e 6 84
e 6 89
e 6 94
e 7 11
e 7 13
e 7 14
e 7 16
e 7 20
e 7 21
e 7 22
e 7 23
e 7 24
e 7 26
e 7 27
e 7 32
e 7 33
e 7 34
e 7 36
e 7 39
e 7 40
e 7 41
e 7 42
e 7 43
e 7 49
e 7 50
e 7 53
e 7 55
e 7 58
e 7 65
e 7 71
e 7 72
e 7 75
e 7 76
e 7 85
e 8 10
e 8 13
e 8 16
e 8 17
e 8 18
e 8 19
e 8 21
e 8 22
e 8 24
e 8 25
e 8 26
e 8 27
e 8 28
e 8 29
e 8 30
e 8 31
e 8 33
e 8 34
e 8 37
e 8 38
e 8 42
e 8 44
e 8 45
e 8 46
e 8 47
e 8 49
e 8 53
e 8 54
e 8 56
e 8 59
e 8 60
e 8 62
e 8 63
e 8 64
e 8 67
e 8 68
e 8 71
e 8 75
e 8 76
e 8 83
e 8 84
e 8 86
e 8 90
e 8 91
e 9 10
e 9 11
e 9 13
e 9 15
e 9 17
e 9 19
e 9 21
e 9 24
e 9 25
e 9 27
e 9 30
e 9 31
e 9 34
e 9 35
e 9 36
e 9 39
e 9 41
e 9 42
e 9 45
e 9 48
e 9 49
e 9 54
e 9 55
e 9 56
e 9 60
e 9 62
e 9 63
e 9 65
e 9 66
e 9 70
e 9 73
e 9 74
e 9 78
e 9 80
e 9 83
e 9 88
e 9 91
e 9 96
e 10 12
e 10 14
e 10 15
e 10 17
e 10 19
e 10 21
e 10 22
e 10 23
e 10 25
e 10 26
e 10 27
e 10 28
e 10 30
e 10 31
e 10 32
e 10 33
e 10 35
e 10 36
e 10 37
e 10 39
e 10 40
e 10 41
e 10 43
e 10 44
e 10 47
e 10 51
e 10 54
e 10 55
e 10 56
e 10 57
e 10 58
e 10 61
e 10 62
e 10 64
e 10 65
e 10 66
e 10 67
e 10 68
e 10 69
e 10 70
e 10 73
e 10 74
e 10 81
e 10 83
e 10 86
e 10 94
e 10 97
e 11 14
e 11 16
e 11 19
e 11 20
e 11 21
e 11 25
e 11 27
e 11 28
e 11 29
e 11 32
e 11 33
e 11 34
e 11 35
e 11 36
e 11 37
e 11 38
e 11 39
e 11 42
e 11 43
e 11 44
e 11 45
e 11 46
e 11 48
e 11 50
e 11 52
e 11 53
e 11 59
e 11 60
e 11 61
e 11 63
e 11 65
e 11 69
e 11 70
e 11 72
e 11 73
e 11 75
e 11 78
e 11 81
e 12 14
e 12 15
e 12 17
e 12 18
e 12 19
e 12 21
e 12 22
e 12 24
e 12 25
e 12 27
e 12 29
e 12 30
e 12 31
e 12 32
e 12 34
e 12 35
e 12 36
e 12 37
e 12 42
e 12 44
e 12 46
e 12 49
e 12 50
e 12 52
e 12 54
e 12 56
e 12 57
e 12 60
e 12 62
e 12 63
e 12 64
e 12 65
e 12 66
e 12 68
e 12 71
e 12 72
e 12 73
e 12 74
e 12 75
e 12 92
e 13 14
e 13 16
e 13 17
e 13 18
e 13 19
e 13 22
e 13 24
e 13 26
e 13 28
e 13 31
e 13 32
e 13 33
e 13 35
e 13 36
e 13 37
e 13 38
e 13 39
e 13 40
e 13 41
e 13 42
e 13 43
e 13 44
e 13 45
e 13 48
e 13 54
e 13 55
e 13 57
e 13 61
e 13 64
e 13 66
e 13 68
e 13 70
e 13 71
e 13 74
e 13 75
e 13 77
e 13 79
e 13 85
e 13 88
e 13 92
e 14 15
e 14 18
e 14 20
e 14 22
e 14 23
e 14 28
e 14 31
e 14 33
e 14 34
e 14 38
e 14 39
e 14 41
e 14 42
e 14 47
e 14 50
e 14 52
e 14 53
e 14 54
e 14 55
e 14 56
e 14 57
e 14 61
e 14 62
e 14 65
e 14 70
e 14 72
e 14 76
e 14 82
e 14 83
e 14 86
e 14 88
e 14 89
e 15 16
e 15 20
e 15 21
e 15 22
e 15 28
e 15 32
e 15 34
e 15 35
e 15 37
e 15 38
e 15 42
e 15 47
e 15 48
e 15 50
e 15 55
e 15 60
e 15 61
e 15 69
e 15 73
e 15 74
e 15 75
e 15 76
e 15 82
e 15 83
e 15 84
e 15 85
e 15 90
e 15 93
e 15 94
e 16 20
e 16 22
e 16 24
e 16 25
e 16 30
e 16 31
e 16 36
e 16 37
e 16 38
e 16 40
e 16 41
e 16 43
e 16 45
e 16 47
e 16 48
e 16 51
e 16 52
e 16 53
e 16 54
e 16 56
e 16 60
e 16 61
e 16 66
e 16 69
e 16 70
e 16 74
e 16 76
e 16 93
e 17 18
e 17 24
e 17 25
e 17 28
e 17 29
e 17 30
e 17 35
e 17 38
e 17 40
e 17 41
e 17 42
e 17 43
e 17 44
e 17 47
e 17 49
e 17 50
e 17 52
e 17 62
e 17 63
e 17 65
e 17 69
e 17 71
e 17 74
e 17 76
e 17 80
e 17 82
e 17 83
e 17 85
e 18 19
e 18 21
e 18 22
e 18 23
e 18 28
e 18 29
e 18 30
e 18 31
e 18 35
e 18 37
e 18 39
e 18 40
e 18 41
e 18 44
e 18 46
e 18 48
e 18 49
e 18 50
e 18 51
e 18 55
e 18 56
e 18 59
e 18 61
e 18 63
e 18 64
e 18 65
e 18 66
e 18 67
e 18 69
e 18 70
e 18 71
e 18 73
e 18 75
e 18 76
e 18 79
e 18 82
e 18 85
e 18 86
e 18 89
e 18 92
e 18 97
e 19 20
e 19 22
e 19 25
e 19 28
e 19 29
e 19 30
e 19 32
e 19 33
e 19 36
e 19 39
e 19 41
e 19 44
e 19 45
e 19 49
e 19 51
e 19 52
e 19 54
e 19 60
e 19 67
e 19 71
e 19 72
e 19 73
e 19 75
e 19 76
e 19 78
e 19 79
e 19 84
e 19 86
e 19 89
e 19 91
e 20 30
e 20 33
e 20 35
e 20 37
e 20 38
e 20 39
e 20 44
e 20 46
e 20 47
e 20 48
e 20 54
e 20 55
e 20 56
e 20 64
e 20 66
e 20 68
e 20 71
e 20 72
e 20 73
e 20 74
e 20 75
e 20 76
e 20 79
e 20 85
e 20 88
e 20 94
e 20 97
e 21 25
e 21 30
e 21 31
e 21 34
e 21 36
e 21 40
e 21 44
e 21 45
e 21 49
e 21 52
e 21 53
e 21 55
e 21 58
e 21 60
e 21 64
e 21 65
e 21 68
e 21 70
e 21 72
e 21 73
e 21 76
e 21 79
e 21 81
e 21 90
e 21 100
e 22 23
e 22 24
e 22 25
e 22 27
e 22 28
e 22 29
e 22 30
e 22 31
e 22 34
e 22 36
e 22 37
e 22 41
e 22 45
e 22 46
e 22 47
e 22 48
e 22 52
e 22 53
e 22 56
e 22 60
e 22 62
e 22 66
e 22 69
e 22 72
e 22 73
e 22 74
e 22 75
e 22 78
e 22 83
e 22 85
e 22 88
e 22 89
e 22 96
e 22 98
e 23 28
e 23 32
e 23 33
e 23 37
e 23 38
e 23 39
e 23 42
e 23 44
e 23 45
e 23 46
e 23 48
e 23 49
e 23 51
e 23 52
e 23 56
e 23 57
e 23 58
e 23 60
e 23 61
e 23 62
e 23 64
e 23 69
e 23 71
e 23 72
e 23 73
e 23 74
e 23 75
e 23 76
e 23 79
e 23 89
e 24 25
e 24 29
e 24 31
e 24 34
e 24 36
e 24 37
e 24 38
e 24 41
e 24 42
e 24 45
e 24 47
e 24 52
e 24 62
e 24 67
e 24 68
e 24 73
e 24 76
e 24 78
e 24 83
e 24 92
e 25 28
e 25 31
e 25 33
e 25 36
e 25 39
e 25 40
e 25 41
e 25 44
e 25 45
e 25 46
e 25 50
e 25 53
e 25 54
e 25 56
e 25 59
e 25 60
e 25 62
e 25 68
e 25 69
e 25 75
e 25 76
e 25 77
e 25 95
e 26 27
e 26 28
e 26 36
e 26 39
e 26 41
e 26 43
e 26 48
e 26 49
e 26 53
e 26 57
e 26 61
e 26 62
e 26 63
e 26 64
e 26 65
e 26 70
e 26 71
e 26 72
e 26 73
e 26 74
e 26 76
e 26 77
e 26 84
e 26 87
e 26 88
e 27 29
e 27 30
e 27 31
e 27 34
e 27 35
e 27 36
e 27 52
e 27 56
e 27 60
e 27 62
e 27 64
e 27 65
e 27 66
e 27 67
e 27 68
e 27 70
e 27 74
e 27 75
e 27 76
e 27 77
e 27 80
e 27 87
e 28 30
e 28 31
e 28 34
e 28 36
e 28 37
e 28 41
e 28 42
e 28 43
e 28 44
e 28 46
e 28 47
e 28 50
e 28 56
e 28 57
e 28 60
e 28 63
e 28 66
e 28 67
e 28 68
e 28 71
e 28 74
e 28 75
e 28 82
e 28 91
e 29 33
e 29 36
e 29 44
e 29 46
e 29 47
e 29 48
e 29 49
e 29 55
e 29 61
e 29 62
e 29 63
e 29 64
e 29 66
e 29 67
e 29 73
e 29 75
e 29 76
e 30 32
e 30 34
e 30 35
e 30 36
e 30 38
e 30 40
e 30 44
e 30 46
e 30 51
e 30 53
e 30 54
e 30 55
e 30 58
e 30 60
e 30 62
e 30 63
e 30 65
e 30 67
e 30 68
e 30 69
e 30 73
e 30 75
e 30 78
e 30 80
e 30 90
e 30 93
e 30 95
e 31 32
e 31 33
e 31 34
e 31 38
e 31 39
e 31 41
e 31 42
e 31 43
e 31 44
e 31 48
e 31 50
e 31 51
e 31 53
e 31 57
e 31 58
e 31 61
e 31 63
e 31 66
e 31 67
e 31 68
e 31 70
e 31 72
e 31 73
e 31 74
e 31 75
e 31 76
e 31 77
e 31 79
e 31 82
e 31 88
e 31 91
e 31 92
e 32 33
e 32 34
e 32 35
e 32 48
e 32 49
e 32 51
e 32 54
e 32 55
e 32 58
e 32 62
e 32 66
e 32 67
e 32 71
e 32 73
e 32 74
e 32 75
e 32 76
e 32 78
e 32 79
e 32 86
e 32 87
e 32 88
e 32 96
e 33 35
e 33 36
e 33 37
e 33 39
e 33 42
e 33 44
e 33 45
e 33 48
e 33 52
e 33 53
e 33 56
e 33 60
e 33 66
e 33 68
e 33 70
e 33 71
e 33 73
e 33 75
e 33 79
e 33 81
e 33 82
e 33 86
e 33 90
e 33 93
e 33 94
e 34 35
e 34 38
e 34 42
e 34 43
e 34 44
e 34 47
e 34 50
e 34 51
e 34 53
e 34 55
e 34 57
e 34 58
e 34 59
e 34 64
e 34 65
e 34 74
e 34 77
e 34 80
e 34 82
e 34 92
e 35 38
e 35 40
e 35 41
e 35 42
e 35 43
e 35 45
e 35 47
e 35 51
e 35 58
e 35 62
e 35 67
e 35 69
e 35 71
e 35 73
e 35 74
e 35 79
e 35 86
e 35 88
e 35 93
e 35 97
e 36 39
e 36 42
e 36 43
e 36 47
e 36 48
e 36 49
e 36 51
e 36 55
e 36 56
e 36 57
e 36 58
e 36 60
e 36 62
e 36 64
e 36 67
e 36 68
e 36 70
e 36 71
e 36 72
e 36 74
e 36 76
e 36 77
e 36 80
e 36 82
e 36 83
e 36 89
e 36 91
e 37 41
e 37 43
e 37 44
e 37 54
e 37 55
e 37 56
e 37 57
e 37 58
e 37 62
e 37 69
e 37 70
e 37 71
e 37 73
e 37 75
e 37 77
e 37 80
e 37 82
e 37 83
e 37 87
e 37 91
e 37 94
e 37 100
e 38 42
e 38 44
e 38 47
e 38 49
e 38 53
e 38 55
e 38 56
e 38 58
e 38 61
e 38 63
e 38 64
e 38 68
e 38 69
e 38 70
e 38 73
e 38 74
e 38 75
e 38 76
e 38 88
e 39 41
e 39 42
e 39 44
e 39 47
e 39 51
e 39 52
e 39 53
e 39 54
e 39 55
e 39 56
e 39 57
e 39 60
e 39 62
e 39 65
e 39 67
e 39 70
e 39 73
e 39 75
e 39 83
e 39 86
e 39 88
e 39 89
e 39 90
e 39 92
e 40 42
e 40 45
e 40 48
e 40 49
e 40 52
e 40 53
e 40 54
e 40 55
e 40 58
e 40 59
e 40 60
e 40 62
e 40 63
e 40 66
e 40 67
e 40 70
e 40 73
e 40 79
e 40 92
e 40 94
e 41 43
e 41 44
e 41 47
e 41 48
e 41 50
e 41 54
e 41 55
e 41 59
e 41 60
e 41 62
e 41 64
e 41 66
e 41 68
e 41 70
e 41 72
e 41 74
e 41 75
e 41 76
e 41 77
e 41 78
e 41 80
e 41 82
e 41 83
e 41 84
e 41 86
e 41 89
e 42 43
e 42 44
e 42 46
e 42 49
e 42 52
e 42 53
e 42 60
e 42 62
e 42 65
e 42 69
e 42 71
e 42 74
e 42 76
e 42 80
e 42 81
e 42 90
e 42 92
e 43 44
e 43 45
e 43 47
e 43 53
e 43 54
e 43 55
e 43 56
e 43 57
e 43 59
e 43 60
e 43 62
e 43 63
e 43 64
e 43 67
e 43 70
e 43 72
e 43 73
e 43 74
e 43 76
e 43 77
e 43 79
e 43 84
e 43 92
e 43 95
e 44 47
e 44 50
e 44 51
e 44 53
e 44 56
e 44 57
e 44 63
e 44 64
e 44 65
e 44 66
e 44 69
e 44 72
e 44 73
e 44 75
e 44 80
e 44 85
e 44 86
e 44 87
e 44 91
e 45 46
e 45 48
e 45 51
e 45 52
e 45 56
e 45 59
e 45 61
e 45 62
e 45 65
e 45 66
e 45 68
e 45 69
e 45 74
e 45 76
e 45 77
e 45 78
e 45 79
e 45 87
e 45 88
e 45 94
e 45 95
e 46 47
e 46 49
e 46 55
e 46 57
e 46 58
e 46 59
e 46 60
e 46 62
e 46 63
e 46 65
e 46 68
e 46 69
e 46 71
e 46 76
e 46 77
e 46 78
e 46 81
e 46 86
e 46 89
e 47 50
e 47 51
e 47 52
e 47 53
e 47 59
e 47 65
e 47 66
e 47 67
e 47 69
e 47 71
e 47 73
e 47 74
e 47 75
e 47 76
e 47 81
e 47 82
e 47 87
e 47 89
e 47 91
e 47 94
e 47 98
e 48 51
e 48 52
e 48 53
e 48 56
e 48 57
e 48 59
e 48 62
e 48 63
e 48 66
e 48 67
e 48 68
e 48 69
e 48 73
e 48 79
e 48 80
e 48 82
e 48 84
e 48 93
e 48 94
e 49 53
e 49 57
e 49 58
e 49 61
e 49 64
e 49 66
e 49 68
e 49 70
e 49 72
e 49 73
e 49 75
e 49 76
e 49 78
e 49 82
e 49 85
e 49 90
e 49 92
e 49 93
e 49 94
e 50 54
e 50 55
e 50 56
e 50 59
e 50 61
e 50 63
e 50 64
e 50 67
e 50 68
e 50 69
e 50 72
e 50 73
e 50 74
e 50 75
e 50 76
e 50 77
e 50 80
e 50 84
e 50 92
e 50 93
e 51 56
e 51 57
e 51 58
e 51 62
e 51 70
e 51 72
e 51 74
e 51 77
e 51 80
e 51 89
e 51 90
e 51 91
e 51 93
e 52 55
e 52 56
e 52 57
e 52 59
e 52 60
e 52 63
e 52 64
e 52 65
e 52 67
e 52 69
e 52 70
e 52 71
e 52 75
e 52 76
e 52 77
e 52 82
e 52 92
e 53 55
e 53 56
e 53 57
e 53 58
e 53 65
e 53 67
e 53 70
e 53 74
e 53 75
e 53 76
e 53 79
e 53 80
e 53 85
e 53 88
e 53 100
e 54 56
e 54 59
e 54 60
e 54 62
e 54 63
e 54 64
e 54 68
e 54 69
e 54 70
e 54 73
e 54 74
e 54 86
e 54 88
e 54 89
e 54 90
e 54 92
e 54 94
e 54 100
e 55 58
e 55 59
e 55 60
e 55 62
e 55 63
e 55 67
e 55 68
e 55 70
e 55 71
e 55 74
e 55 75
e 55 76
e 55 80
e 55 83
e 55 86
e 55 90
e 55 94
e 55 99
e 55 100
e 56 61
e 56 62
e 56 63
e 56 64
e 56 67
e 56 70
e 56 71
e 56 74
e 56 75
e 56 76
e 56 87
e 56 89
e 56 100
e 57 62
e 57 63
e 57 66
e 57 73
e 57 75
e 57 79
e 57 81
e 57 88
e 57 94
e 58 62
e 58 63
e 58 66
e 58 67
e 58 72
e 58 73
e 58 75
e 58 83
e 59 64
e 59 67
e 59 68
e 59 71
e 59 72
e 59 73
e 59 74
e 59 79
e 59 81
e 59 82
e 59 84
e 59 86
e 59 87
e 59 90
e 59 91
e 59 98
e 60 61
e 60 64
e 60 65
e 60 68
e 60 69
e 60 70
e 60 72
e 60 73
e 60 74
e 60 78
e 60 79
e 60 86
e 60 89
e 60 90
e 61 63
e 61 66
e 61 67
e 61 71
e 61 72
e 61 74
e 61 75
e 61 76
e 61 77
e 61 79
e 61 81
e 61 84
e 61 85
e 61 86
e 61 88
e 61 92
e 61 94
e 62 65
e 62 66
e 62 72
e 62 73
e 62 74
e 62 75
e 62 80
e 62 84
e 62 85
e 62 86
e 62 92
e 62 94
e 63 64
e 63 67
e 63 68
e 63 74
e 63 76
e 63 80
e 63 88
e 63 90
e 63 91
e 64 68
e 64 71
e 64 73
e 64 74
e 64 77
e 64 78
e 64 80
e 64 81
e 64 82
e 64 86
e 64 90
e 64 93
e 64 94
e 64 99
e 65 68
e 65 72
e 65 74
e 65 75
e 65 78
e 65 79
e 65 82
e 65 84
e 65 89
e 65 93
e 66 69
e 66 72
e 66 78
e 66 79
e 66 80
e 66 82
e 66 83
e 66 86
e 66 88
e 67 68
e 67 69
e 67 73
e 67 74
e 67 76
e 67 80
e 67 83
e 67 97
e 68 72
e 68 76
e 68 81
e 68 83
e 68 88
e 68 91
e 69 73
e 69 76
e 69 81
e 69 83
e 69 89
e 69 90
e 70 71
e 70 72
e 70 73
e 70 74
e 70 75
e 70 76
e 70 79
e 70 83
e 70 84
e 70 86
e 70 87
e 70 92
e 71 72
e 71 73
e 71 74
e 71 75
e 71 90
e 72 73
e 72 76
e 72 94
e 73 74
e 73 75
e 73 80
e 73 81
e 73 82
e 73 83
e 73 86
e 73 87
e 73 89
e 73 90
e 73 91
e 73 93
e 74 76
e 74 78
e 74 84
e 74 85
e 74 88
e 74 91
e 74 96
e 74 97
e 75 78
e 75 80
e 75 81
e 75 82
e 75 83
e 75 84
e 75 86
e 75 87
e 75 88
e 75 91
e 75 92
e 76 77
e 76 79
e 76 80
e 76 82
e 76 84
e 76 89
e 76 94
e 76 98
e 77 78
e 77 80
e 77 84
e 77 87
e 77 96
e 78 79
e 78 80
e 78 81
e 78 85
e 78 90
e 78 91
e 78 93
e 78 94
e 78 98
e 78 100
e 79 83
e 79 87
e 79 89
e 79 90
e 79 91
e 79 92
e 80 82
e 80 83
e 80 84
e 80 86
e 80 89
e 80 92
e 81 84
e 81 90
e 81 91
e 82 87
e 82 88
e 82 90
e 82 91
e 83 86
e 83 92
e 83 97
e 84 85
e 84 86
e 84 87
e 84 89
e 84 90
e 84 91
e 84 92
e 85 86
e 85 97
e 85 100
e 86 87
e 86 90
e 86 95
e 86 99
e 87 88
e 87 93
e 88 89
e 88 90
e 88 98
e 89 91
e 90 91
e 90 97
e 90 98
e 91 99
e 92 96
e 93 96
e 94 96
e 94 98
e 95 97
e 97 99
e 99 100
